min: T;
r_1_1 = 0;
r_2_1 = 0;
r_3_1 = 0;
11 + 2.2 a_1_1 + 2.2 a_4_1 + 2.2 a_7_1 + r_1_1 <= r_1_0;
11 + 4.4 a_2_1 + 4.4 a_5_1 + r_2_1 <= r_2_0;
11 + 4.4 a_3_1 + 4.4 a_6_1 + r_3_1 <= r_3_0;
11 + 4.4 a_4_1 + 4.4 a_7_1 + r_4_1 <= r_4_0;
11 + 4.4 a_5_1 + r_5_1 <= r_5_0;
11 + 2.2 a_6_1 + r_6_1 <= r_6_0;
11 + 4.4 a_7_1 + r_7_1 <= r_7_0;
11 + 2.2 a_1_0 + 2.2 a_4_0 + 2.2 a_7_0 + r_1_0 <= r_4_0;
11 + 2.2 a_1_1 + 2.2 a_4_1 + 2.2 a_7_1 + r_1_1 <= r_4_1;
11 + 4.4 a_2_0 + 4.4 a_5_0 + r_2_0 <= r_5_0;
11 + 4.4 a_2_1 + 4.4 a_5_1 + r_2_1 <= r_5_1;
11 + 4.4 a_3_0 + 4.4 a_6_0 + r_3_0 <= r_6_0;
11 + 4.4 a_3_1 + 4.4 a_6_1 + r_3_1 <= r_6_1;
11 + 4.4 a_4_0 + 4.4 a_7_0 + r_4_0 <= r_7_0;
11 + 4.4 a_4_1 + 4.4 a_7_1 + r_4_1 <= r_7_1;
r_0_0 <= t_0_0;
r_0_1 <= t_0_1;
11 + 2.2 a_1_0 + 2.2 a_4_0 + 2.2 a_7_0 + r_1_0 <= t_1_0;
11 + 2.2 a_1_1 + 2.2 a_4_1 + 2.2 a_7_1 + r_1_1 <= t_1_1;
11 + 4.4 a_2_0 + 4.4 a_5_0 + r_2_0 <= t_2_0;
11 + 4.4 a_2_1 + 4.4 a_5_1 + r_2_1 <= t_2_1;
11 + 4.4 a_3_0 + 4.4 a_6_0 + r_3_0 <= t_3_0;
11 + 4.4 a_3_1 + 4.4 a_6_1 + r_3_1 <= t_3_1;
11 + 4.4 a_4_0 + 4.4 a_7_0 + r_4_0 <= t_4_0;
11 + 4.4 a_4_1 + 4.4 a_7_1 + r_4_1 <= t_4_1;
11 + 4.4 a_5_0 + r_5_0 <= t_5_0;
11 + 4.4 a_5_1 + r_5_1 <= t_5_1;
11 + 2.2 a_6_0 + r_6_0 <= t_6_0;
11 + 2.2 a_6_1 + r_6_1 <= t_6_1;
11 + 4.4 a_7_0 + r_7_0 <= t_7_0;
11 + 4.4 a_7_1 + r_7_1 <= t_7_1;
16 a_0_1 + t_0_1 <= t_0_0;
20 a_1_1 + t_1_1 <= t_1_0;
16 a_2_1 + t_2_1 <= t_2_0;
16 a_3_1 + t_3_1 <= t_3_0;
20 a_4_1 + t_4_1 <= t_4_0;
16 a_5_1 + t_5_1 <= t_5_0;
20 a_6_1 + t_6_1 <= t_6_0;
20 a_7_1 + t_7_1 <= t_7_0;
16 a_0_0 + t_0_0 <= T;
20 a_1_0 + t_1_0 <= T;
16 a_2_0 + t_2_0 <= T;
16 a_3_0 + t_3_0 <= T;
20 a_4_0 + t_4_0 <= T;
16 a_5_0 + t_5_0 <= T;
20 a_6_0 + t_6_0 <= T;
20 a_7_0 + t_7_0 <= T;
a_0_0 + a_0_1 + a_1_0 + a_1_1 + a_2_0 + a_2_1 + a_3_0 + a_3_1 + a_4_0 + a_4_1 + a_5_0 + a_5_1 + a_6_0 + a_6_1 + a_7_0 + a_7_1 = 10000;
r_0_0 = rk_0_0;
r_0_1 = rk_0_1;
11 + 2.2 a_1_0 + 2.2 a_4_0 + 2.2 a_7_0 + r_1_0 = rk_1_0;
11 + 2.2 a_1_1 + 2.2 a_4_1 + 2.2 a_7_1 + r_1_1 = rk_1_1;
11 + 4.4 a_2_0 + 4.4 a_5_0 + r_2_0 = rk_2_0;
11 + 4.4 a_2_1 + 4.4 a_5_1 + r_2_1 = rk_2_1;
11 + 4.4 a_3_0 + 4.4 a_6_0 + r_3_0 = rk_3_0;
11 + 4.4 a_3_1 + 4.4 a_6_1 + r_3_1 = rk_3_1;
11 + 4.4 a_4_0 + 4.4 a_7_0 + r_4_0 = rk_4_0;
11 + 4.4 a_4_1 + 4.4 a_7_1 + r_4_1 = rk_4_1;
11 + 4.4 a_5_0 + r_5_0 = rk_5_0;
11 + 4.4 a_5_1 + r_5_1 = rk_5_1;
11 + 2.2 a_6_0 + r_6_0 = rk_6_0;
11 + 2.2 a_6_1 + r_6_1 = rk_6_1;
11 + 4.4 a_7_0 + r_7_0 = rk_7_0;
11 + 4.4 a_7_1 + r_7_1 = rk_7_1;
16 a_0_0 + t_0_0 = tk_0_0;
16 a_0_1 + t_0_1 = tk_0_1;
20 a_1_0 + t_1_0 = tk_1_0;
20 a_1_1 + t_1_1 = tk_1_1;
16 a_2_0 + t_2_0 = tk_2_0;
16 a_2_1 + t_2_1 = tk_2_1;
16 a_3_0 + t_3_0 = tk_3_0;
16 a_3_1 + t_3_1 = tk_3_1;
20 a_4_0 + t_4_0 = tk_4_0;
20 a_4_1 + t_4_1 = tk_4_1;
16 a_5_0 + t_5_0 = tk_5_0;
16 a_5_1 + t_5_1 = tk_5_1;
20 a_6_0 + t_6_0 = tk_6_0;
20 a_6_1 + t_6_1 = tk_6_1;
20 a_7_0 + t_7_0 = tk_7_0;
20 a_7_1 + t_7_1 = tk_7_1;